benchmarks/simple/result/bug4.output
sat
(model
  (define-fun x0 () String
    "a")
  (define-fun x1 () String
    "ab")
)
